
Gurobi 11.0.0 (win64) logging started Tue May 21 18:35:07 2024

Set parameter LogFile to value "./Results/StripPacking-ManyRuns/Logs/SBL-111-StripPacking-15-1.log"
Set parameter TimeLimit to value 3600
Set parameter Cuts to value 1
Set parameter Presolve to value 1
Set parameter Heuristics to value 1
Set parameter LPWarmStart to value 2
Gurobi Optimizer version 11.0.0 build v11.0.0rc2 (win64 - Windows 10.0 (19045.2))

CPU model: Intel(R) Core(TM) i9-10980XE CPU @ 3.00GHz, instruction set [SSE2|AVX|AVX2|AVX512]
Thread count: 18 physical cores, 36 logical processors, using up to 18 threads

Optimize a model with 1275 rows, 241 columns and 4230 nonzeros
Model fingerprint: 0xae5eb8e6
Variable types: 31 continuous, 210 integer (210 binary)
Coefficient statistics:
  Matrix range     [1e+00, 1e+04]
  Objective range  [1e+00, 1e+00]
  Bounds range     [1e+00, 1e+04]
  RHS range        [5e-01, 1e+04]

Warning: Completing partial solution with 210 unfixed non-continuous variables out of 210
User MIP start produced solution with objective 72 (0.00s)
User MIP start produced solution with objective 72 (0.00s)
Loaded user MIP start with objective 72

Presolve removed 210 rows and 0 columns
Presolve time: 0.00s
Presolved: 1065 rows, 241 columns, 3600 nonzeros
Variable types: 31 continuous, 210 integer (210 binary)

Root relaxation: objective 3.700000e+01, 145 iterations, 0.00 seconds (0.00 work units)

    Nodes    |    Current Node    |     Objective Bounds      |     Work
 Expl Unexpl |  Obj  Depth IntInf | Incumbent    BestBd   Gap | It/Node Time

     0     0   37.00000    0   13   72.00000   37.00000  48.6%     -    0s
H    0     0                      69.0000000   37.00000  46.4%     -    0s
H    0     0                      66.0000000   37.00000  43.9%     -    0s
     0     0   37.00000    0   29   66.00000   37.00000  43.9%     -    0s
H    0     0                      63.0000000   37.00000  41.3%     -    0s
     0     0   37.00000    0   29   63.00000   37.00000  41.3%     -    0s
H    0     0                      61.0000000   37.00000  39.3%     -    0s
     0     0   37.00000    0   17   61.00000   37.00000  39.3%     -    0s
H    0     0                      60.0000000   37.00000  38.3%     -    0s
     0     0   37.00000    0   17   60.00000   37.00000  38.3%     -    0s
     0     0   37.00000    0   14   60.00000   37.00000  38.3%     -    0s
     0     0   37.00000    0   25   60.00000   37.00000  38.3%     -    0s
     0     0   37.00000    0   20   60.00000   37.00000  38.3%     -    0s
     0     0   37.00000    0   21   60.00000   37.00000  38.3%     -    0s
H    0     0                      59.0000000   37.00000  37.3%     -    0s
     0     0   37.00000    0   11   59.00000   37.00000  37.3%     -    0s
     0     0   37.00000    0   12   59.00000   37.00000  37.3%     -    0s
     0     0   37.00000    0   19   59.00000   37.00000  37.3%     -    0s
     0     0   37.00000    0   19   59.00000   37.00000  37.3%     -    0s
H    0     0                      57.0000000   37.00000  35.1%     -    0s
     0     2   37.00000    0   15   57.00000   37.00000  35.1%     -    0s
H  105   124                      57.0000000   37.00000  35.1%  30.1    3s
H  391   610                      51.0000000   37.00000  27.5%  22.3    3s
   643   923 infeasible   28        51.00000   37.00000  27.5%  20.0    6s
H  668   923                      50.0000000   37.00000  26.0%  19.7    6s
H 2504  1810                      50.0000000   37.00000  26.0%  13.6    6s
  2920  1684   41.00000   29   27   50.00000   37.00000  26.0%  13.6   11s
  3883  2206   37.00000   22   30   50.00000   37.00000  26.0%  15.3   18s
  4499  2469   37.00000   35   32   50.00000   37.00000  26.0%  17.8   20s
  5140  2435   37.00000   26   19   50.00000   37.00000  26.0%  19.2   26s
  5658  2383   44.00000   38   19   50.00000   37.00000  26.0%  20.6   32s
  6296  2424   45.00000   35   12   50.00000   37.00000  26.0%  21.9   37s
  6813  2404   37.25666   26   48   50.00000   37.00000  26.0%  22.6   41s
  7388  2509   48.00000   47   12   50.00000   37.00000  26.0%  23.8   45s
H 8550  2379                      49.0000000   37.00000  24.5%  25.0   49s
  9138  2191   43.00000   24   27   49.00000   37.00000  24.5%  25.5   51s
H 9283  2005                      48.0000000   37.00000  22.9%  25.7   51s
 10554  2536   37.00000   23   38   48.00000   37.00000  22.9%  28.3   55s
H11370  2536                      48.0000000   37.00000  22.9%  29.4   55s
 13535  3268   46.00000   34   35   48.00000   37.00000  22.9%  30.3   61s
 15975  3760 infeasible   33        48.00000   37.00000  22.9%  32.2   67s
 16467  4188   45.00000   33   19   48.00000   37.00000  22.9%  32.5   70s
 18947  4826   37.00000   26   29   48.00000   37.00000  22.9%  34.4   75s
 21682  5844   46.00000   32   30   48.00000   37.00000  22.9%  35.4   94s
 25887  5866   39.00000   30   25   48.00000   37.00000  22.9%  37.1   98s
 26129  5918   39.00000   31   25   48.00000   37.00000  22.9%  37.3  101s
 26341  5929   41.00000   29   25   48.00000   37.00000  22.9%  37.3  109s
H26345  4891                      47.0000000   37.00000  21.3%  37.3  109s
 26366  5234   41.00000   30   23   47.00000   37.00000  21.3%  37.3  116s
 29112  5240   41.00000   31   29   47.00000   37.00000  21.3%  38.5  120s
H29134  5240                      47.0000000   37.00000  21.3%  38.5  120s
 30792  5647 infeasible   32        47.00000   37.00000  21.3%  38.7  128s
 31321  5997 infeasible   37        47.00000   37.00000  21.3%  38.8  133s
 34110  6047   46.00000   39   23   47.00000   37.00000  21.3%  39.3  139s
 34575  6213 infeasible   39        47.00000   37.00000  21.3%  39.5  143s
 36267  6308   41.00000   29   28   47.00000   37.00000  21.3%  39.8  147s
 36973  6515   41.00000   30   28   47.00000   37.00000  21.3%  40.0  152s
 38486  6732   41.00000   29   32   47.00000   37.00000  21.3%  40.2  156s
 39797  7253   42.00000   30   32   47.00000   37.00000  21.3%  40.5  164s
 42629  7389   41.00000   31   19   47.00000   37.00000  21.3%  40.8  170s
 43557  7437 infeasible   32        47.00000   37.00000  21.3%  41.0  175s
 43814  9550   41.00000   29   19   47.00000   37.00000  21.3%  41.0  286s
 61832  9672 infeasible   34        47.00000   37.00000  21.3%  42.5  293s
 62241  9679   37.14286   36   30   47.00000   37.00000  21.3%  42.5  301s
 62278  9921   37.00000   36   22   47.00000   37.00000  21.3%  42.5  308s
 63509 10017   41.00000   37   18   47.00000   37.00000  21.3%  42.6  318s
 64247 10125   43.00000   43   15   47.00000   37.00000  21.3%  42.7  331s
 65054 10233   43.00000   37   16   47.00000   37.00000  21.3%  42.8  342s
 66261 10369   46.00000   38   23   47.00000   37.00000  21.3%  42.9  361s
 68522 10514   46.00000   39   26   47.00000   37.00000  21.3%  43.0  380s
 70789 10579 infeasible   36        47.00000   37.00000  21.3%  42.9  400s
 72230 10730   46.00000   36   20   47.00000   37.00000  21.3%  42.9  426s
 75000 10741 infeasible   51        47.00000   37.00000  21.3%  42.7  455s
 78782 10758 infeasible   39        47.00000   37.00000  21.3%  42.6  469s
 78929 10978   39.00000   29   24   47.00000   37.00000  21.3%  42.6  488s
 81802 11025 infeasible   40        47.00000   37.07299  21.1%  42.3  504s
 83355 11055 infeasible   41        47.00000   37.07299  21.1%  42.2  533s
 87014 11074 infeasible   42        47.00000   38.00000  19.1%  42.0  548s
 87846 11092 infeasible   31        47.00000   38.00000  19.1%  42.0  564s
 90333 11121 infeasible   30        47.00000   38.00000  19.1%  41.9  579s
 91858 11257   41.00000   30   23   47.00000   38.00000  19.1%  41.8  600s
 94806 11032     cutoff   44        47.00000   41.00000  12.8%  41.6  675s
 103056 11042 infeasible   32        47.00000   41.00000  12.8%  41.3  697s
 103290 11312     cutoff   33        47.00000   41.00000  12.8%  41.3  720s
 105906 11219   45.00000   45   22   47.00000   41.00000  12.8%  41.0  744s
 107942 11197 infeasible   44        47.00000   41.00000  12.8%  40.9  795s
 113342 11190     cutoff   33        47.00000   41.00000  12.8%  40.6  804s
 114077 11113   41.00000   32   23   47.00000   41.00000  12.8%  40.6  846s
 118819 11108 infeasible   27        47.00000   41.00000  12.8%  40.4  865s
 120145 11116 infeasible   41        47.00000   41.00000  12.8%  40.3  881s
 120705 11014 infeasible   41        47.00000   41.00000  12.8%  40.3  927s

Gurobi 11.0.0 (win64) logging started Wed May 22 08:40:14 2024

Set parameter LogFile to value "./Results/StripPacking-ManyRuns/Logs/SBL-111-StripPacking-15-1.log"
Set parameter TimeLimit to value 3600
Set parameter Cuts to value 1
Set parameter Presolve to value 1
Set parameter Heuristics to value 1
Set parameter LPWarmStart to value 2
Gurobi Optimizer version 11.0.0 build v11.0.0rc2 (win64 - Windows 10.0 (19045.2))

CPU model: Intel(R) Core(TM) i9-10980XE CPU @ 3.00GHz, instruction set [SSE2|AVX|AVX2|AVX512]
Thread count: 18 physical cores, 36 logical processors, using up to 18 threads

Optimize a model with 1275 rows, 241 columns and 4230 nonzeros
Model fingerprint: 0xae5eb8e6
Variable types: 31 continuous, 210 integer (210 binary)
Coefficient statistics:
  Matrix range     [1e+00, 1e+04]
  Objective range  [1e+00, 1e+00]
  Bounds range     [1e+00, 1e+04]
  RHS range        [5e-01, 1e+04]

Warning: Completing partial solution with 210 unfixed non-continuous variables out of 210
User MIP start produced solution with objective 72 (0.01s)
User MIP start produced solution with objective 72 (0.01s)
Loaded user MIP start with objective 72

Presolve removed 210 rows and 0 columns
Presolve time: 0.00s
Presolved: 1065 rows, 241 columns, 3600 nonzeros
Variable types: 31 continuous, 210 integer (210 binary)

Root relaxation: objective 3.700000e+01, 145 iterations, 0.00 seconds (0.00 work units)

    Nodes    |    Current Node    |     Objective Bounds      |     Work
 Expl Unexpl |  Obj  Depth IntInf | Incumbent    BestBd   Gap | It/Node Time

     0     0   37.00000    0   13   72.00000   37.00000  48.6%     -    0s
H    0     0                      69.0000000   37.00000  46.4%     -    0s
H    0     0                      66.0000000   37.00000  43.9%     -    0s
     0     0   37.00000    0   29   66.00000   37.00000  43.9%     -    0s
H    0     0                      63.0000000   37.00000  41.3%     -    0s
     0     0   37.00000    0   29   63.00000   37.00000  41.3%     -    0s
H    0     0                      61.0000000   37.00000  39.3%     -    0s
     0     0   37.00000    0   17   61.00000   37.00000  39.3%     -    0s
H    0     0                      60.0000000   37.00000  38.3%     -    0s
     0     0   37.00000    0   17   60.00000   37.00000  38.3%     -    0s
     0     0   37.00000    0   14   60.00000   37.00000  38.3%     -    0s
     0     0   37.00000    0   25   60.00000   37.00000  38.3%     -    0s
     0     0   37.00000    0   20   60.00000   37.00000  38.3%     -    0s
     0     0   37.00000    0   21   60.00000   37.00000  38.3%     -    0s
H    0     0                      59.0000000   37.00000  37.3%     -    0s
     0     0   37.00000    0   11   59.00000   37.00000  37.3%     -    0s
     0     0   37.00000    0   12   59.00000   37.00000  37.3%     -    0s
     0     0   37.00000    0   19   59.00000   37.00000  37.3%     -    0s
     0     0   37.00000    0   19   59.00000   37.00000  37.3%     -    0s
H    0     0                      57.0000000   37.00000  35.1%     -    0s
     0     2   37.00000    0   15   57.00000   37.00000  35.1%     -    0s
H  105   124                      57.0000000   37.00000  35.1%  30.1    0s
H  391   610                      51.0000000   37.00000  27.5%  22.3    0s
H  668   923                      50.0000000   37.00000  26.0%  19.7    1s
H 2504  1810                      50.0000000   37.00000  26.0%  13.6    1s
  4628  2596   39.00000   37   19   50.00000   37.00000  26.0%  18.3    5s
  6489  2482   38.22275   32   31   50.00000   37.00000  26.0%  22.2   10s
H 8550  2379                      49.0000000   37.00000  24.5%  25.0   14s
  9138  2191   43.00000   24   27   49.00000   37.00000  24.5%  25.5   15s
H 9283  2005                      48.0000000   37.00000  22.9%  25.7   15s
H11370  2536                      48.0000000   37.00000  22.9%  29.4   18s
 12423  3102   42.00000   38   31   48.00000   37.00000  22.9%  30.0   21s
 14346  3678   37.24347   35   35   48.00000   37.00000  22.9%  31.1   25s
 18347  4280   37.00000   25   38   48.00000   37.00000  22.9%  34.0   31s
 20999  4946   43.00000   30   19   48.00000   37.00000  22.9%  35.1   36s
 21682  5844   46.00000   32   30   48.00000   37.00000  22.9%  35.4   40s
 26129  5918   39.00000   31   25   48.00000   37.00000  22.9%  37.3   45s
 26341  5929   41.00000   29   25   48.00000   37.00000  22.9%  37.3   51s
H26345  4891                      47.0000000   37.00000  21.3%  37.3   51s
 29112  5240   41.00000   31   29   47.00000   37.00000  21.3%  38.5   56s
H29134  5240                      47.0000000   37.00000  21.3%  38.5   56s
 30792  5647 infeasible   32        47.00000   37.00000  21.3%  38.7   61s
 34110  6047   46.00000   39   23   47.00000   37.00000  21.3%  39.3   69s
 34575  6213 infeasible   39        47.00000   37.00000  21.3%  39.5   72s
 36267  6308   41.00000   29   28   47.00000   37.00000  21.3%  39.8   76s
 36973  6515   41.00000   30   28   47.00000   37.00000  21.3%  40.0   80s
 39797  7253   42.00000   30   32   47.00000   37.00000  21.3%  40.5   87s
 42629  7389   41.00000   31   19   47.00000   37.00000  21.3%  40.8   91s
 43557  7437 infeasible   32        47.00000   37.00000  21.3%  41.0   95s
 43814  9550   41.00000   29   19   47.00000   37.00000  21.3%  41.0  168s
 61832  9672 infeasible   34        47.00000   37.00000  21.3%  42.5  173s
 62241  9679   37.14286   36   30   47.00000   37.00000  21.3%  42.5  178s
 62278  9921   37.00000   36   22   47.00000   37.00000  21.3%  42.5  182s
 63509 10017   41.00000   37   18   47.00000   37.00000  21.3%  42.6  187s
 64247 10125   43.00000   43   15   47.00000   37.00000  21.3%  42.7  193s
 65054 10233   43.00000   37   16   47.00000   37.00000  21.3%  42.8  199s
 66261 10369   46.00000   38   23   47.00000   37.00000  21.3%  42.9  208s
 68522 10514   46.00000   39   26   47.00000   37.00000  21.3%  43.0  215s
 70789 10579 infeasible   36        47.00000   37.00000  21.3%  42.9  224s
 72230 10730   46.00000   36   20   47.00000   37.00000  21.3%  42.9  237s
 75000 10741 infeasible   51        47.00000   37.00000  21.3%  42.7  252s
 78782 10758 infeasible   39        47.00000   37.00000  21.3%  42.6  261s
 78929 10978   39.00000   29   24   47.00000   37.00000  21.3%  42.6  271s
 81802 11025 infeasible   40        47.00000   37.07299  21.1%  42.3  278s
 83355 11055 infeasible   41        47.00000   37.07299  21.1%  42.2  292s
 87014 11074 infeasible   42        47.00000   38.00000  19.1%  42.0  300s
 87846 11092 infeasible   31        47.00000   38.00000  19.1%  42.0  309s
 90333 11121 infeasible   30        47.00000   38.00000  19.1%  41.9  317s
 91858 11257   41.00000   30   23   47.00000   38.00000  19.1%  41.8  329s
 93346 11257   41.00000   42   15   47.00000   38.00000  19.1%  41.7  330s
 94806 11032     cutoff   44        47.00000   41.00000  12.8%  41.6  381s
 103056 11042 infeasible   32        47.00000   41.00000  12.8%  41.3  396s
 103290 11312     cutoff   33        47.00000   41.00000  12.8%  41.3  408s
 105906 11219   45.00000   45   22   47.00000   41.00000  12.8%  41.0  419s
 107942 11197 infeasible   44        47.00000   41.00000  12.8%  40.9  452s
 113342 11190     cutoff   33        47.00000   41.00000  12.8%  40.6  457s
 114077 11113   41.00000   32   23   47.00000   41.00000  12.8%  40.6  485s
 118819 11108 infeasible   27        47.00000   41.00000  12.8%  40.4  494s
 120145 11116 infeasible   41        47.00000   41.00000  12.8%  40.3  500s
 120705 11014 infeasible   41        47.00000   41.00000  12.8%  40.3  522s
 124217 10936   41.00000   32   42   47.00000   41.00000  12.8%  40.2  539s
 127388 10897   42.00000   30   36   47.00000   41.00000  12.8%  40.2  548s
 128928 10483   46.00000   36   25   47.00000   41.00000  12.8%  40.1  657s
 141991 10413 infeasible   46        47.00000   42.00000  10.6%  39.6  664s
 142632 10402   43.00000   33   21   47.00000   42.00000  10.6%  39.7  671s
 142853 10354   43.00000   34   20   47.00000   42.00000  10.6%  39.6  680s
 144760 10357   46.00000   34   24   47.00000   42.00000  10.6%  39.5  687s
 144793 10453   46.00000   35   22   47.00000   42.00000  10.6%  39.5  700s
 146996 10440   43.00000   39   33   47.00000   42.00000  10.6%  39.4  708s
 147581 10344   43.00000   40   29   47.00000   42.00000  10.6%  39.3  715s
 149170 10347   45.00000   41   29   47.00000   42.00000  10.6%  39.2  725s
 149748 10296   45.00000   42   28   47.00000   42.00000  10.6%  39.2  743s
 152770 10262   45.00000   43   26   47.00000   42.00000  10.6%  39.1  750s
 153552 10265   45.00000   44   26   47.00000   42.00000  10.6%  39.1  759s
 153646 10265 infeasible   45        47.00000   42.00000  10.6%  39.1  775s
 155890 10250   46.00000   40   20   47.00000   43.00000  8.51%  39.0  785s
 158066 10219   46.00000   41   20   47.00000   43.00000  8.51%  38.9  919s
 165888 10219   43.00000   34   26   47.00000   43.00000  8.51%  38.6  920s
 171647 10214 infeasible   38        47.00000   43.00000  8.51%  38.4  928s
 171966 10272 infeasible   35        47.00000   43.00000  8.51%  38.4  937s
 173518 10285   46.00000   32   18   47.00000   43.00000  8.51%  38.3  947s
 173557 10211   46.00000   33   17   47.00000   43.00000  8.51%  38.3  971s
 177063 10193 infeasible   34        47.00000   43.00000  8.51%  38.2  978s
 177618 10176   46.00000   34   18   47.00000   43.00000  8.51%  38.2  993s
 179861 10155   46.00000   34   17   47.00000   43.00000  8.51%  38.1 1055s
 186498 10168 infeasible   33        47.00000   43.00000  8.51%  38.0 1066s
 186955 10324   43.00000   34   35   47.00000   43.00000  8.51%  38.0 1081s
 189318 10335 infeasible   49        47.00000   43.00000  8.51%  37.8 1093s
 191187 10370   43.00000   48   23   47.00000   43.00000  8.51%  37.8 1114s
 191687 10370 infeasible   43        47.00000   43.00000  8.51%  37.8 1115s
 194005 10348 infeasible   49        47.00000   43.00000  8.51%  37.7 1132s
 196870 10318   43.00000   35   28   47.00000   43.00000  8.51%  37.6 1155s
 199355 10311 infeasible   36        47.00000   43.00000  8.51%  37.6 1165s
 199596 10318   43.00000   35   36   47.00000   43.00000  8.51%  37.6 1189s
 202884 10298 infeasible   40        47.00000   43.00000  8.51%  37.5 1202s
 204696 10243 infeasible   38        47.00000   43.00000  8.51%  37.5 1246s
 209640 10233     cutoff   35        47.00000   43.00000  8.51%  37.4 1256s
 209826 10005   46.00000   36   20   47.00000   43.00000  8.51%  37.4 1292s
 213882 10006   46.00000   35   34   47.00000   43.00000  8.51%  37.3 1301s
 213917  9854   46.00000   36   31   47.00000   43.00000  8.51%  37.3 1329s
 217058  9857   45.00000   36   25   47.00000   44.00000  6.38%  37.2 1344s
 217091  9980   45.00000   37   28   47.00000   44.00000  6.38%  37.2 1359s
 219019  9944   46.00000   42   22   47.00000   44.00000  6.38%  37.1 1366s
 219310  8883 infeasible   43        47.00000   44.00000  6.38%  37.1 1475s
 230339  8852     cutoff   47        47.00000   46.00000  2.13%  36.8 1487s
 230893  8666 infeasible   38        47.00000   46.00000  2.13%  36.8 1512s
 233628  8606 infeasible   36        47.00000   46.00000  2.13%  36.6 1522s
 234413  8384   46.00000   39   17   47.00000   46.00000  2.13%  36.6 1552s
 237826  8244   46.00000   38   20   47.00000   46.00000  2.13%  36.4 1561s
 239028  7966   46.00000   39   20   47.00000   46.00000  2.13%  36.4 1593s
 243093  7897   46.00000   41   27   47.00000   46.00000  2.13%  36.2 1603s
 243819  7900   46.00000   31   15   47.00000   46.00000  2.13%  36.2 1612s
 244107  7796   46.00000   38    6   47.00000   46.00000  2.13%  36.2 1645s
 248152  7520 infeasible   43        47.00000   46.00000  2.13%  36.0 1669s
 251071  7155 infeasible   44        47.00000   46.00000  2.13%  35.9 1690s
 253673  6867   46.00000   37   11   47.00000   46.00000  2.13%  35.8 1715s
 256167  6446   46.00000   37   14   47.00000   46.00000  2.13%  35.8 1754s
 258555  6446 infeasible   33        47.00000   46.00000  2.13%  35.7 1755s
 260531  6305   46.00000   31   14   47.00000   46.00000  2.13%  35.6 1765s
 261482  5710   46.00000   32   13   47.00000   46.00000  2.13%  35.6 1802s
 266102  5620   46.00000   43   32   47.00000   46.00000  2.13%  35.6 1812s
 267359  5610 infeasible   44        47.00000   46.00000  2.13%  35.6 1824s
 267588  5622 infeasible   46        47.00000   46.00000  2.13%  35.5 1841s
 269624  5207   46.00000   49   10   47.00000   46.00000  2.13%  35.5 1900s
 276161  4861   46.00000   37   21   47.00000   46.00000  2.13%  35.3 1916s
 278970  4641   46.00000   42   15   47.00000   46.00000  2.13%  35.3 1945s
 282521  4499   46.00000   44    9   47.00000   46.00000  2.13%  35.2 1959s
 284677  3923     cutoff   38        47.00000   46.00000  2.13%  35.1 2041s
 292821  3719     cutoff   43        47.00000   46.00000  2.13%  34.9 2052s
 294122  3614 infeasible   33        47.00000   46.00000  2.13%  34.9 2068s
 296706  3539   46.00000   38   22   47.00000   46.00000  2.13%  34.9 2080s
 298270  3143   46.00000   39   21   47.00000   46.00000  2.13%  34.9 2125s
 303621  3124 infeasible   39        47.00000   46.00000  2.13%  34.8 2137s
 303700  2935     cutoff   32        47.00000   46.00000  2.13%  34.8 2148s
 305923  2717   46.00000   32   25   47.00000   46.00000  2.13%  34.7 2177s
 310587  2532 infeasible   49        47.00000   46.00000  2.13%  34.6 2189s
 312857  2451   46.00000   37   15   47.00000   46.00000  2.13%  34.6 2201s
 314567  2401   46.00000   38   16   47.00000   46.00000  2.13%  34.6 2225s
 318235  2055   46.00000   39   18   47.00000   46.00000  2.13%  34.4 2256s
 323695  1847 infeasible   40        47.00000   46.00000  2.13%  34.3 2278s
 327388  1795   46.00000   40   25   47.00000   46.00000  2.13%  34.3 2285s
 327632  1779   46.00000   41   25   47.00000   46.00000  2.13%  34.3 2291s
 327981  1730 infeasible   40        47.00000   46.00000  2.13%  34.3 2299s
 328475  1462   46.00000   37   19   47.00000   46.00000  2.13%  34.3 2347s
 335195  1329     cutoff   36        47.00000   46.00000  2.13%  34.1 2356s
 336281   876   46.00000   36   16   47.00000   46.00000  2.13%  34.1 2394s
 342511   877     cutoff   41        47.00000   46.00000  2.13%  33.9 2401s
 342546   703     cutoff   42        47.00000   46.00000  2.13%  33.9 2430s
 347945   723 infeasible   33        47.00000   46.00000  2.13%  33.8 2436s
 348279   766   46.00000   56   11   47.00000   46.00000  2.13%  33.8 2443s
 348392   296 infeasible   61        47.00000   46.00000  2.13%  33.8 2584s
 350204   296   46.00000   39   16   47.00000   46.00000  2.13%  33.8 2585s
 364603   331   46.00000   37   18   47.00000   46.00000  2.13%  33.5 2591s
 365379   288   46.00000   68   10   47.00000   46.00000  2.13%  33.5 2595s
 365942   200   46.00000   37   38   47.00000   46.00000  2.13%  33.5 2600s
 367836   196 infeasible   53        47.00000   46.00000  2.13%  33.5 2606s
 369088    57 infeasible   47        47.00000   46.00000  2.13%  33.5 2615s

Cutting planes:
  Learned: 7034
  Gomory: 11
  Cover: 82
  MIR: 164
  StrongCG: 11
  Flow cover: 379
  RLT: 27
  Relax-and-lift: 2

Explored 370067 nodes (12391669 simplex iterations) in 2619.75 seconds (728.10 work units)
Thread count was 18 (of 36 available processors)

Solution count 10: 47 47 47 ... 57

Optimal solution found (tolerance 1.00e-04)
Best objective 4.700000000000e+01, best bound 4.700000000000e+01, gap 0.0000%

Gurobi 11.0.0 (win64) logging started Tue Jun 18 12:06:43 2024

Set parameter LogFile to value "./Results/StripPacking-ManyRuns/Logs/SBL-111-StripPacking-15-1.log"
Set parameter TimeLimit to value 3600
Set parameter Cuts to value 1
Set parameter Presolve to value 1
Set parameter Heuristics to value 1
Set parameter LPWarmStart to value 2
Gurobi Optimizer version 11.0.0 build v11.0.0rc2 (win64 - Windows 10.0 (19045.2))

CPU model: Intel(R) Core(TM) i9-10980XE CPU @ 3.00GHz, instruction set [SSE2|AVX|AVX2|AVX512]
Thread count: 18 physical cores, 36 logical processors, using up to 18 threads

Optimize a model with 1275 rows, 241 columns and 4230 nonzeros
Model fingerprint: 0xb57384e5
Variable types: 31 continuous, 210 integer (210 binary)
Coefficient statistics:
  Matrix range     [1e+00, 1e+04]
  Objective range  [1e+00, 1e+00]
  Bounds range     [1e+00, 1e+04]
  RHS range        [5e-01, 1e+04]

Warning: Completing partial solution with 210 unfixed non-continuous variables out of 210
User MIP start produced solution with objective 77 (0.00s)
Loaded user MIP start with objective 77

Presolve removed 210 rows and 0 columns
Presolve time: 0.00s
Presolved: 1065 rows, 241 columns, 3600 nonzeros
Variable types: 31 continuous, 210 integer (210 binary)

Root relaxation: objective 5.000000e+01, 108 iterations, 0.00 seconds (0.00 work units)

    Nodes    |    Current Node    |     Objective Bounds      |     Work
 Expl Unexpl |  Obj  Depth IntInf | Incumbent    BestBd   Gap | It/Node Time

     0     0   50.00000    0    1   77.00000   50.00000  35.1%     -    0s
H    0     0                      62.0000000   50.00000  19.4%     -    0s
H    0     0                      60.0000000   50.00000  16.7%     -    0s
H    0     0                      58.0000000   50.00000  13.8%     -    0s
     0     0   50.00000    0    4   58.00000   50.00000  13.8%     -    0s
     0     0   50.00000    0    5   58.00000   50.00000  13.8%     -    0s
H    0     0                      54.0000000   50.00000  7.41%     -    0s
     0     0   50.00000    0    4   54.00000   50.00000  7.41%     -    0s
H    0     0                      52.0000000   50.00000  3.85%     -    0s
     0     0   50.00000    0    3   52.00000   50.00000  3.85%     -    0s
     0     0   50.00000    0    4   52.00000   50.00000  3.85%     -    0s
     0     0   50.00000    0    3   52.00000   50.00000  3.85%     -    0s
     0     0   50.00000    0    7   52.00000   50.00000  3.85%     -    0s
     0     0   50.00000    0    7   52.00000   50.00000  3.85%     -    0s
     0     0   50.00000    0    7   52.00000   50.00000  3.85%     -    0s
     0     2   50.00000    0    7   52.00000   50.00000  3.85%     -    0s
H  187   301                      52.0000000   50.00000  3.85%   5.7    0s
H  199   301                      50.0000000   50.00000  0.00%   6.0    0s

Cutting planes:
  Learned: 2
  Cover: 5
  MIR: 8
  StrongCG: 1
  RLT: 2

Explored 314 nodes (2570 simplex iterations) in 0.92 seconds (0.19 work units)
Thread count was 18 (of 36 available processors)

Solution count 8: 50 52 52 ... 77

Optimal solution found (tolerance 1.00e-04)
Best objective 5.000000000000e+01, best bound 5.000000000000e+01, gap 0.0000%
